% number of games is 36

num = 36;
cap = 5;
refill = 2;
fun = [-19, 8, -3, -3, 4, -13, -12, 11, 16, 8, 12, 7, 20, -16, -7, -5, 1, -6, 3, -6, -16, 14, 8, -9, 19, 6, -18, 19, -18, -13, -4, -3, 16, 7, 18, -10];
